(set-logic QF_SLAH)

(declare-datatypes ((data_t 0)) (((c_data_t (sz Int)))))

(declare-heap (Int data_t))

(define-fun hck ((?x Int) (?y Int) (?v Int)) Bool
	(and
		(>= (- ?y ?x) 2) (<= (- ?y ?x) ?v)
		(sep (pto ?x (c_data_t (- ?y ?x))) (blk (+ ?x 1) ?y))
))

(define-fun-rec hls ((?x Int) (?y Int) (?v Int)) Bool
	(or
		(and (= ?x ?y) (_ emp Int data_t))
		(exists ((?w Int)) (sep (hck ?x ?w ?v) (hls ?w ?y ?v)))
))

(declare-const x0 Int)
(declare-const x1 Int)
(declare-const x2 Int)
(declare-const x3 Int)
(declare-const x4 Int)
(declare-const x5 Int)
(declare-const x6 Int)
(declare-const x7 Int)
(declare-const v6 Int)
(declare-const x8 Int)
(declare-const x9 Int)
(declare-const x10 Int)
(declare-const x11 Int)
(declare-const x12 Int)
(declare-const x13 Int)
(declare-const x14 Int)
(declare-const x15 Int)
(declare-const v14 Int)
(declare-const x16 Int)
(declare-const x17 Int)
(declare-const x18 Int)
(declare-const x19 Int)
(declare-const x20 Int)
(declare-const x21 Int)
(declare-const x22 Int)
(declare-const x23 Int)
(declare-const x24 Int)
(declare-const x25 Int)
(declare-const x26 Int)
(declare-const x27 Int)
(declare-const x28 Int)
(declare-const x29 Int)
(declare-const v28 Int)
(declare-const x30 Int)
(declare-const x31 Int)
(declare-const x32 Int)
(declare-const x33 Int)
(declare-const v32 Int)
(declare-const x34 Int)
(declare-const x35 Int)
(declare-const x36 Int)
(declare-const x37 Int)
(declare-const x38 Int)
(declare-const x39 Int)
(declare-const x40 Int)
(declare-const x41 Int)
(declare-const x42 Int)
(declare-const x43 Int)
(declare-const x44 Int)
(declare-const x45 Int)
(declare-const x46 Int)
(declare-const x47 Int)
(declare-const x48 Int)
(declare-const x49 Int)
(declare-const x50 Int)
(declare-const x51 Int)
(declare-const x52 Int)
(declare-const x53 Int)
(declare-const x54 Int)
(declare-const x55 Int)
(declare-const v54 Int)
(declare-const x56 Int)
(declare-const x57 Int)
(declare-const x58 Int)
(declare-const x59 Int)
(declare-const x60 Int)
(declare-const x61 Int)
(declare-const v60 Int)
(declare-const x62 Int)
(declare-const x63 Int)
(declare-const x64 Int)
(declare-const x65 Int)
(declare-const x66 Int)
(declare-const x67 Int)
(declare-const x68 Int)
(declare-const x69 Int)
(declare-const x70 Int)
(declare-const x71 Int)
(declare-const v70 Int)
(declare-const x72 Int)
(declare-const x73 Int)
(declare-const x74 Int)
(declare-const x75 Int)
(declare-const x76 Int)
(declare-const x77 Int)
(declare-const x78 Int)
(declare-const x79 Int)
(declare-const x80 Int)
(declare-const x81 Int)
(declare-const x82 Int)
(declare-const x83 Int)
(declare-const x84 Int)
(declare-const x85 Int)
(declare-const v84 Int)
(declare-const x86 Int)
(declare-const x87 Int)
(declare-const x88 Int)
(declare-const x89 Int)
(declare-const x90 Int)
(declare-const x91 Int)
(declare-const v90 Int)
(declare-const x92 Int)
(declare-const x93 Int)
(declare-const x94 Int)
(declare-const x95 Int)
(declare-const x96 Int)
(declare-const x97 Int)
(declare-const x98 Int)
(declare-const x99 Int)
(declare-const x100 Int)
(declare-const x101 Int)
(declare-const x102 Int)
(declare-const x103 Int)
(declare-const x104 Int)
(declare-const x105 Int)
(declare-const x106 Int)
(declare-const x107 Int)
(declare-const v106 Int)
(declare-const x108 Int)
(declare-const x109 Int)
(declare-const x110 Int)
(declare-const x111 Int)
(declare-const x112 Int)
(declare-const x113 Int)
(declare-const x114 Int)
(declare-const x115 Int)
(declare-const x116 Int)
(declare-const x117 Int)
(declare-const x118 Int)
(declare-const x119 Int)
(declare-const x120 Int)
(declare-const x121 Int)
(declare-const x122 Int)
(declare-const x123 Int)
(declare-const v122 Int)
(declare-const x124 Int)
(declare-const x125 Int)
(declare-const x126 Int)
(declare-const x127 Int)
(declare-const v126 Int)
(declare-const x128 Int)
(declare-const x129 Int)
(declare-const v128 Int)
(declare-const x130 Int)
(declare-const x131 Int)
(declare-const x132 Int)
(declare-const x133 Int)
(declare-const x134 Int)
(declare-const x135 Int)
(declare-const v134 Int)
(declare-const x136 Int)
(declare-const x137 Int)
(declare-const v136 Int)
(declare-const x138 Int)
(declare-const x139 Int)
(declare-const x140 Int)
(declare-const x141 Int)
(declare-const x142 Int)
(declare-const x143 Int)
(declare-const x144 Int)
(declare-const x145 Int)
(declare-const x146 Int)
(declare-const x147 Int)
(declare-const v146 Int)
(declare-const x148 Int)
(declare-const x149 Int)

(assert
(sep
(pto x0 (c_data_t x1))
(blk x2 x3)
(pto x4 (c_data_t x5))
(hls x6 x7 v6)
(pto x8 (c_data_t x9))
(pto x10 (c_data_t x11))
(blk x12 x13)
(hls x14 x15 v14)
(blk x16 x17)
(blk x18 x19)
(pto x20 (c_data_t x21))
(blk x22 x23)
(blk x24 x25)
(pto x26 (c_data_t x27))
(hls x28 x29 v28)
(pto x30 (c_data_t x31))
(hls x32 x33 v32)
(pto x34 (c_data_t x35))
(blk x36 x37)
(blk x38 x39)
(pto x40 (c_data_t x41))
(pto x42 (c_data_t x43))
(pto x44 (c_data_t x45))
(blk x46 x47)
(pto x48 (c_data_t x49))
(pto x50 (c_data_t x51))
(pto x52 (c_data_t x53))
(hls x54 x55 v54)
(blk x56 x57)
(pto x58 (c_data_t x59))
(hls x60 x61 v60)
(pto x62 (c_data_t x63))
(pto x64 (c_data_t x65))
(pto x66 (c_data_t x67))
(blk x68 x69)
(hls x70 x71 v70)
(blk x72 x73)
(pto x74 (c_data_t x75))
(pto x76 (c_data_t x77))
(pto x78 (c_data_t x79))
(blk x80 x81)
(pto x82 (c_data_t x83))
(hls x84 x85 v84)
(pto x86 (c_data_t x87))
(pto x88 (c_data_t x89))
(hls x90 x91 v90)
(pto x92 (c_data_t x93))
(blk x94 x95)
(blk x96 x97)
(blk x98 x99)
(blk x100 x101)
(pto x102 (c_data_t x103))
(blk x104 x105)
(hls x106 x107 v106)
(blk x108 x109)
(pto x110 (c_data_t x111))
(pto x112 (c_data_t x113))
(pto x114 (c_data_t x115))
(pto x116 (c_data_t x117))
(pto x118 (c_data_t x119))
(blk x120 x121)
(hls x122 x123 v122)
(blk x124 x125)
(hls x126 x127 v126)
(hls x128 x129 v128)
(pto x130 (c_data_t x131))
(pto x132 (c_data_t x133))
(hls x134 x135 v134)
(hls x136 x137 v136)
(blk x138 x139)
(pto x140 (c_data_t x141))
(pto x142 (c_data_t x143))
(pto x144 (c_data_t x145))
(hls x146 x147 v146)
(pto x148 (c_data_t x149))
))

(check-sat)